NAME : optical-integer.pruned_local_16.tour
TYPE : TOUR
DIMENSION : 174
TOUR_SECTION
1
57
58
61
62
65
66
69
70
73
74
77
78
81
85
98
156
2
39
45
46
49
76
79
82
87
90
91
123
124
125
140
145
146
3
56
59
60
63
64
67
68
71
72
75
80
83
84
96
130
132
133
134
159
160
4
55
97
103
121
122
128
135
144
148
149
150
151
152
153
154
155
158
5
37
38
40
43
47
50
52
99
100
101
106
110
127
138
169
173
174
6
48
102
115
118
119
126
139
167
168
170
171
172
7
29
30
33
34
41
42
44
51
88
89
92
93
117
120
129
137
161
162
163
164
165
166
8
11
12
15
16
19
20
23
24
27
94
95
104
105
107
108
109
111
112
113
114
116
131
141
142
143
147
9
10
13
14
17
18
21
22
25
26
28
31
32
35
36
53
54
86
136
157
-1
EOF
